<number of tasks>
20

<cycle time>
1000

<order strength>
0,211


<task times>
1 337
2 432
3 405
4 592
5 580
6 503
7 409
8 496
9 355
10 478
11 531
12 289
13 303
14 574
15 432
16 639
17 591
18 427
19 429
20 545

<precedence relations>
1,5
1,6
2,7
3,8
5,11
6,9
7,10
7,12
10,13
11,14
11,15
12,16
13,18
13,19
15,20
16,17

<end>
